NAME          ClpDefau  FREE
ROWS
 N  OBJROW
 L  ZMUNI1_PCT
 L  ZMUNI2_PCT
 L  ZMUNI3_PCT
 L  ZMUNI4_PCT
 L  ZMUNI5_PCT
 L  ZMUNI6_PCT
 L  ZMUNI7_PCT
 L  ZMUNI8_PCT
 L  ZMUNI9_PCT
COLUMNS
    QMUNI1 OBJROW 1.          
    QMUNI1 ZMUNI1_PCT 29020.1187  
    QMUNI1 ZMUNI2_PCT 2158.3557   
    QMUNI1 ZMUNI3_PCT 4558.5633   
    QMUNI1 ZMUNI4_PCT 3385.44846  
    QMUNI1 ZMUNI5_PCT 337.41      
    QMUNI1 ZMUNI6_PCT 547.9812    
    QMUNI1 ZMUNI7_PCT 2293.9682   
    QMUNI1 ZMUNI8_PCT 1988.2203   
    QMUNI1 ZMUNI9_PCT 1323.3185   
    QMUNI2 OBJROW 1.          
    QMUNI2 ZMUNI1_PCT 2087.593    
    QMUNI2 ZMUNI2_PCT 34519.1956  
    QMUNI2 ZMUNI3_PCT 2921.6767   
    QMUNI2 ZMUNI4_PCT 3018.37921  
    QMUNI2 ZMUNI5_PCT 505.8288    
    QMUNI2 ZMUNI6_PCT 596.8094    
    QMUNI2 ZMUNI7_PCT 1747.8943   
    QMUNI2 ZMUNI8_PCT 2005.3864   
    QMUNI2 ZMUNI9_PCT 2100.5631   
    QMUNI3 OBJROW 1.          
    QMUNI3 ZMUNI1_PCT 4276.6571   
    QMUNI3 ZMUNI2_PCT 2813.9115   
    QMUNI3 ZMUNI3_PCT 30415.9165  
    QMUNI3 ZMUNI4_PCT 5188.75122  
    QMUNI3 ZMUNI5_PCT 186.1572    
    QMUNI3 ZMUNI6_PCT 343.3227    
    QMUNI3 ZMUNI7_PCT 1791.7634   
    QMUNI3 ZMUNI8_PCT 1711.6547   
    QMUNI3 ZMUNI9_PCT 1102.0661   
    QMUNI4 OBJROW 1.          
    QMUNI4 ZMUNI1_PCT 3318.5959   
    QMUNI4 ZMUNI2_PCT 3136.6349   
    QMUNI4 ZMUNI3_PCT 5529.5945   
    QMUNI4 ZMUNI4_PCT 106248.66486
    QMUNI4 ZMUNI5_PCT 18.3105     
    QMUNI4 ZMUNI6_PCT 160.0265    
    QMUNI4 ZMUNI7_PCT 1440.239    
    QMUNI4 ZMUNI8_PCT 1479.5304   
    QMUNI4 ZMUNI9_PCT 1113.1287   
    QMUNI5 OBJROW 1.          
    QMUNI5 ZMUNI1_PCT 516.3192    
    QMUNI5 ZMUNI2_PCT 431.633     
    QMUNI5 ZMUNI3_PCT 473.404     
    QMUNI5 ZMUNI4_PCT 404.16718   
    QMUNI5 ZMUNI5_PCT 35375.4043  
    QMUNI5 ZMUNI6_PCT 3156.8527   
    QMUNI5 ZMUNI7_PCT 936.3175    
    QMUNI5 ZMUNI8_PCT 787.3536    
    QMUNI5 ZMUNI9_PCT 804.1382    
    QMUNI6 OBJROW 1.          
    QMUNI6 ZMUNI1_PCT 967.9794    
    QMUNI6 ZMUNI2_PCT 762.1765    
    QMUNI6 ZMUNI3_PCT 886.9171    
    QMUNI6 ZMUNI4_PCT 738.71613   
    QMUNI6 ZMUNI5_PCT 3813.7436   
    QMUNI6 ZMUNI6_PCT 33364.4867  
    QMUNI6 ZMUNI7_PCT 1956.5583   
    QMUNI6 ZMUNI8_PCT 1717.186    
    QMUNI6 ZMUNI9_PCT 1693.1534   
    QMUNI7 OBJROW 1.          
    QMUNI7 ZMUNI1_PCT 1571.2738   
    QMUNI7 ZMUNI2_PCT 996.5897    
    QMUNI7 ZMUNI3_PCT 1415.6342   
    QMUNI7 ZMUNI4_PCT 1117.1341   
    QMUNI7 ZMUNI5_PCT 303.4592    
    QMUNI7 ZMUNI6_PCT 505.2566    
    QMUNI7 ZMUNI7_PCT 30511.8561  
    QMUNI7 ZMUNI8_PCT 2521.3242   
    QMUNI7 ZMUNI9_PCT 985.3363    
    QMUNI8 OBJROW 1.          
    QMUNI8 ZMUNI1_PCT 1218.2235   
    QMUNI8 ZMUNI2_PCT 1153.946    
    QMUNI8 ZMUNI3_PCT 1267.2425   
    QMUNI8 ZMUNI4_PCT 1002.97928  
    QMUNI8 ZMUNI5_PCT 306.3202    
    QMUNI8 ZMUNI6_PCT 370.9793    
    QMUNI8 ZMUNI7_PCT 2612.3047   
    QMUNI8 ZMUNI8_PCT 28730.5832  
    QMUNI8 ZMUNI9_PCT 1674.2707   
    QMUNI9 OBJROW 1.          
    QMUNI9 ZMUNI1_PCT 974.4644    
    QMUNI9 ZMUNI2_PCT 1348.6863   
    QMUNI9 ZMUNI3_PCT 1086.6165   
    QMUNI9 ZMUNI4_PCT 948.42911   
    QMUNI9 ZMUNI5_PCT 642.5857    
    QMUNI9 ZMUNI6_PCT 692.5583    
    QMUNI9 ZMUNI7_PCT 1539.9933   
    QMUNI9 ZMUNI8_PCT 2107.6203   
    QMUNI9 ZMUNI9_PCT 28199.5774  
RHS
    RHS ZMUNI1_PCT 0.0253366093
    RHS ZMUNI2_PCT -0.019429877
    RHS ZMUNI3_PCT -0.020770939
    RHS ZMUNI4_PCT -0.029081096
    RHS ZMUNI5_PCT -0.016085779
    RHS ZMUNI6_PCT -0.013494149
    RHS ZMUNI7_PCT 0.031018106 
    RHS ZMUNI8_PCT 0.0094887494
    RHS ZMUNI9_PCT -0.002029893
BOUNDS
 LO BOUND QMUNI1 -0.000881496
 UP BOUND QMUNI1      1.1e+10
 LO BOUND QMUNI2 -0.000607731
 UP BOUND QMUNI2      1.1e+10
 LO BOUND QMUNI3 -0.000662159
 UP BOUND QMUNI3      1.1e+10
 LO BOUND QMUNI4 -0.000253249
 UP BOUND QMUNI4      1.1e+10
 LO BOUND QMUNI5 -0.000452242
 UP BOUND QMUNI5      1.1e+10
 LO BOUND QMUNI6 -0.000623654
 UP BOUND QMUNI6      1.1e+10
 LO BOUND QMUNI7 -0.000276371
 UP BOUND QMUNI7      1.1e+10
 LO BOUND QMUNI8 -0.000384738
 UP BOUND QMUNI8      1.1e+10
 LO BOUND QMUNI9 -0.000413218
 UP BOUND QMUNI9      1.1e+10
ENDATA
